peakDumbCharging = 18500; 
Machine = anon_enum(16); 
machineSpeed = [3700,3700,3700,3700,3700,3700,3700,3700,3700,3700,3700,3700,3700,3700,3700,3700]; 
machineLoad = [3700,3700,3700,3700,3700,3700,3700,3700,3700,3700,3700,3700,3700,3700,3700,3700]; 
Car = anon_enum(18); 
demandCar = [9320,9040,5480,5680,4200,15480,2640,8560,21720,6280,6400,22280,14720,5360,56120,30960,1720,25880]; 
arrivalCar = [71,69,69,68,68,64,62,61,52,48,45,43,43,43,31,29,29,29]; 
departureCar = [74,73,72,72,71,70,65,65,63,62,47,65,49,56,49,49,31,40]; 
